p cnf 12 50 
1 11 8 0
-4 -7 -8 0
1 -8 -12 0
-11 -8 2 0
-5 -4 -1 0
-10 -8 -5 0
3 8 -12 0
-1 -10 -4 0
9 -7 3 0
3 -7 5 0
2 8 10 0
3 6 5 0
6 1 -7 0
-6 11 9 0
-11 8 -9 0
-2 4 -6 0
7 2 -5 0
-11 -2 1 0
-1 2 7 0
6 9 4 0
9 -8 -10 0
9 -5 7 0
-4 -9 -3 0
-2 -9 -1 0
2 -10 -4 0
1 -12 -3 0
-9 -10 -6 0
-6 -1 -2 0
10 -8 -6 0
-2 1 11 0
8 12 5 0
-10 5 9 0
8 -10 11 0
-11 12 -6 0
8 10 1 0
-7 1 -9 0
-12 -6 1 0
-5 4 9 0
6 -8 -3 0
-4 -11 2 0
-11 -1 2 0
-4 -7 -3 0
6 -11 5 0
7 -3 9 0
-12 -7 11 0
-2 -8 1 0
-5 -11 -8 0
6 -5 -3 0
-2 6 9 0
9 1 4 0
